3 9 6 0 3 6 7 -1 
6 2 7 5 -1 8 -1 
0 7 0 -1 -1 -1 
6 5 6 -1 -1 
0 4 1 -1 4 0 -1 
9 -1 8 8 5 4 0 -1 -1 
2 7 2 -1 -1 
3 0 2 -1 2 -1 
9 8 3 4 2 9 3 -1 -1 
0 0 7 -1 -1 
-1 3 6 -1 
3 6 -1 -1 8 -1 
-1 1 9 -1 
0 5 -1 
0 4 5 5 4 -1 
